(declare-const term_to_project_onto0 Real)
(declare-const tmp___1 Int)
(declare-const term_to_project_onto1 Real)
(declare-const term_to_project_onto Real)
(assert (exists
         ((|tmp___1'?1| Int) (|y'?2| Int) (|x'?3| Int) (phi_y?4 Int)
            (phi_x?5 Int) (havoc?6 Int) (y?7 Int) (x?8 Int))
         (and (or (<= (+ havoc?6 1) 0) (<= (+ (- havoc?6) 1) 0))
                (or (and (<= x?8 0) (= (+ (- phi_x?5) x?8) 0)
                           (= (+ (- phi_y?4) y?7 1) 0))
                      (and (<= (+ (- x?8) 1) 0) (= (+ (- phi_x?5) x?8 1) 0)
                             (= (+ (- phi_y?4) y?7) 0)))
                (= (+ |tmp___1'?1| (- havoc?6)) 0)
                (= (+ |y'?2| (- phi_y?4)) 0) (= (+ |x'?3| (- phi_x?5)) 0)
                (= term_to_project_onto1 (+ |x'?3| (- x?8)))
                (= term_to_project_onto0 (+ |y'?2| (- y?7)))
                (= term_to_project_onto (+ |tmp___1'?1| (- tmp___1))))))
(check-sat)
